width = 15;
height = 15;

grid = 
[| false,true,true,true,true,true,true,true,true,true,true,true,true,true,false
| true,false,true,true,true,true,true,true,true,true,true,true,true,false,true
| true,true,false,true,true,true,true,true,true,true,true,true,false,true,true
| true,true,true,false,true,true,true,false,true,true,true,false,true,true,true
| true,true,true,true,false,true,true,true,true,true,false,true,true,true,true
| true,true,true,true,true,false,true,true,true,false,true,true,true,true,true
| true,true,true,true,true,true,false,true,false,true,true,true,true,true,true
| true,true,false,true,true,true,true,false,true,true,true,true,false,true,true
| true,true,true,true,true,true,false,true,false,true,true,true,true,true,true
| true,true,true,true,true,false,true,true,true,false,true,true,true,true,true
| true,true,true,true,false,true,true,true,true,true,false,true,true,true,true
| true,true,true,false,true,true,true,false,true,true,true,false,true,true,true
| true,true,false,true,true,true,true,true,true,true,true,true,false,true,true
| true,false,true,true,true,true,true,true,true,true,true,true,true,false,true
| false,true,true,true,true,true,true,true,true,true,true,true,true,true,false
|];
number_of_clues = 84;
start_rows = [1,2,2,3,3,3,4,4,4,4,5,5,5,6,6,6,7,7,7,8,8,8,8,9,9,9,10,10,10,11,11,11,12,12,12,12,13,13,13,14,14,15,2,1,3,1,4,9,14,1,5,13,1,6,12,1,7,11,1,8,10,1,5,9,13,1,8,10,1,7,11,1,6,12,1,5,13,1,4,9,14,1,3,2];
start_cols = [2,1,3,1,4,14,1,5,9,13,1,6,12,1,7,11,1,8,10,1,4,9,14,1,8,10,1,7,11,1,6,12,1,5,9,13,1,4,14,1,3,2,1,2,2,3,3,3,3,4,4,4,5,5,5,6,6,6,7,7,7,8,8,8,8,9,9,9,10,10,10,11,11,11,12,12,12,13,13,13,13,14,14,15];
is_vertical = [false,false,false,false,false,false,false,false,false,false,false,false,false,false,false,false,false,false,false,false,false,false,false,false,false,false,false,false,false,false,false,false,false,false,false,false,false,false,false,false,false,false,true,true,true,true,true,true,true,true,true,true,true,true,true,true,true,true,true,true,true,true,true,true,true,true,true,true,true,true,true,true,true,true,true,true,true,true,true,true,true,true,true,true];
lens = [13,1,11,2,9,2,3,3,3,3,4,5,4,5,3,5,6,1,6,2,4,4,2,6,1,6,5,3,5,4,5,4,3,3,3,3,2,9,2,1,11,13,13,1,11,2,4,4,2,3,7,3,4,5,4,5,3,5,6,1,6,3,3,3,3,6,1,6,5,3,5,4,5,4,3,7,3,2,4,4,2,1,11,13];
